c "826788.clq"
p edge 100 384
e 1 5
e 1 7
e 1 8
e 1 9
e 1 10
e 1 16
e 1 20
e 1 38
e 1 46
e 1 49
e 1 56
e 1 67
e 1 68
e 2 5
e 2 6
e 2 8
e 2 10
e 2 13
e 2 15
e 2 16
e 2 18
e 2 29
e 2 31
e 2 34
e 2 45
e 2 46
e 2 49
e 2 60
e 2 70
e 2 71
e 2 86
e 2 89
e 2 93
e 3 5
e 3 6
e 3 8
e 3 12
e 3 15
e 3 25
e 3 28
e 3 30
e 3 37
e 3 38
e 3 40
e 3 48
e 3 66
e 3 77
e 3 87
e 3 89
e 3 95
e 4 5
e 4 6
e 4 7
e 4 11
e 4 13
e 4 14
e 4 17
e 4 23
e 4 29
e 4 40
e 4 45
e 4 81
e 4 82
e 4 93
e 5 6
e 5 7
e 5 8
e 5 9
e 5 10
e 5 11
e 5 12
e 5 14
e 5 19
e 5 20
e 5 22
e 5 27
e 5 28
e 5 31
e 5 32
e 5 34
e 5 39
e 5 42
e 5 44
e 5 47
e 5 48
e 5 49
e 5 52
e 5 55
e 5 56
e 5 60
e 5 61
e 5 63
e 5 67
e 5 74
e 5 80
e 5 91
e 5 93
e 5 94
e 5 95
e 5 99
e 6 7
e 6 9
e 6 11
e 6 12
e 6 21
e 6 24
e 6 43
e 6 44
e 6 80
e 6 93
e 6 100
e 7 13
e 7 16
e 7 21
e 7 23
e 7 33
e 7 35
e 7 42
e 7 57
e 7 77
e 7 87
e 8 9
e 8 10
e 8 15
e 8 19
e 8 25
e 8 33
e 8 35
e 8 38
e 8 50
e 8 53
e 8 55
e 8 62
e 8 71
e 8 90
e 9 11
e 9 12
e 9 14
e 9 17
e 9 19
e 9 22
e 9 23
e 9 24
e 9 25
e 9 27
e 9 28
e 9 32
e 9 46
e 9 51
e 9 54
e 9 58
e 9 64
e 9 88
e 9 95
e 10 14
e 10 16
e 10 27
e 10 32
e 10 34
e 10 42
e 10 51
e 10 68
e 10 76
e 11 13
e 11 17
e 11 18
e 11 20
e 11 24
e 11 37
e 11 40
e 11 43
e 11 49
e 11 52
e 11 58
e 11 62
e 11 78
e 11 79
e 11 90
e 11 97
e 12 17
e 12 18
e 12 21
e 12 22
e 12 30
e 12 61
e 12 63
e 12 65
e 12 72
e 12 74
e 12 85
e 12 97
e 13 29
e 13 30
e 13 36
e 14 15
e 14 23
e 14 36
e 14 88
e 15 31
e 15 33
e 15 35
e 15 37
e 15 47
e 15 57
e 15 84
e 15 96
e 16 18
e 16 19
e 16 26
e 16 39
e 16 41
e 16 56
e 16 68
e 16 69
e 16 73
e 16 81
e 16 85
e 16 86
e 17 20
e 17 31
e 17 32
e 17 36
e 17 39
e 17 47
e 17 64
e 17 82
e 17 91
e 17 98
e 18 21
e 18 25
e 18 26
e 18 30
e 18 39
e 18 67
e 18 71
e 18 73
e 18 90
e 19 22
e 19 26
e 19 41
e 19 74
e 19 89
e 19 96
e 19 98
e 20 28
e 20 37
e 20 44
e 20 52
e 20 96
e 21 24
e 21 43
e 21 45
e 21 46
e 22 36
e 22 40
e 22 43
e 22 50
e 22 78
e 22 100
e 23 27
e 23 62
e 23 69
e 23 81
e 23 82
e 23 92
e 23 96
e 24 26
e 24 29
e 24 33
e 24 35
e 24 60
e 24 61
e 24 75
e 25 59
e 27 42
e 27 53
e 27 55
e 27 58
e 27 60
e 27 64
e 29 38
e 29 54
e 29 66
e 30 44
e 30 48
e 30 70
e 31 57
e 31 76
e 32 41
e 32 47
e 32 54
e 32 59
e 32 92
e 33 34
e 33 56
e 33 63
e 34 50
e 34 57
e 34 67
e 35 62
e 35 90
e 36 73
e 36 84
e 36 85
e 37 55
e 37 75
e 38 75
e 40 41
e 40 50
e 40 63
e 40 85
e 40 91
e 40 92
e 40 98
e 41 51
e 41 53
e 41 65
e 41 69
e 41 73
e 41 77
e 41 78
e 41 82
e 41 83
e 41 86
e 41 89
e 41 99
e 42 45
e 42 66
e 42 80
e 42 83
e 43 48
e 43 51
e 43 79
e 43 84
e 43 94
e 44 64
e 44 81
e 44 87
e 44 88
e 45 72
e 45 77
e 47 72
e 49 53
e 49 69
e 49 84
e 50 52
e 50 74
e 50 83
e 50 98
e 51 54
e 51 91
e 51 99
e 52 61
e 52 66
e 52 88
e 53 58
e 53 94
e 54 59
e 54 75
e 54 79
e 54 87
e 56 59
e 56 78
e 58 65
e 59 76
e 59 92
e 60 71
e 61 65
e 66 68
e 66 70
e 66 94
e 67 70
e 67 95
e 70 83
e 70 97
e 71 72
e 71 76
e 71 79
e 72 86
e 79 80
e 80 97
e 80 100
e 89 99
e 91 100
